* ENCODING=ISO-8859-1
NAME          CPLEX
ROWS
 N  obj1    
 G  c1      
 G  c2      
 G  c3      
 G  c4      
 G  c5      
 G  c6      
 G  c7      
 G  c8      
 G  c9      
 G  c10     
 G  c11     
 G  c12     
 G  c13     
 G  c14     
 G  c15     
 G  c16     
 G  c17     
 G  c18     
 G  c19     
 G  c20     
 G  c21     
 G  c22     
 G  c23     
 G  c24     
 G  c25     
 G  c26     
 G  c27     
 G  c28     
 G  c29     
 G  c30     
 G  c31     
 G  c32     
 G  c33     
 G  c34     
 G  c35     
 G  c36     
 G  c37     
 G  c38     
 G  c39     
 G  c40     
COLUMNS
    MARK0000  'MARKER'                 'INTORG'
    x1        obj1                            1
    x1        c14                           355
    x1        c15                           873
    x1        c21                           506
    x1        c38                           153
    x2        obj1                            1
    x2        c21                           713
    x2        c33                           150
    x3        obj1                            1
    x3        c3                            923
    x3        c12                           542
    x3        c13                           295
    x3        c24                           880
    x3        c25                           780
    x3        c34                           981
    x4        obj1                            1
    x4        c7                            246
    x4        c10                           844
    x4        c16                           317
    x4        c22                           493
    x5        obj1                            1
    x5        c10                           331
    x5        c19                           815
    x5        c31                           247
    x5        c35                           687
    x6        obj1                            1
    x6        c20                           968
    x7        obj1                            1
    x7        c4                            125
    x7        c8                            825
    x7        c26                           784
    x7        c31                           468
    x8        obj1                            1
    x8        c30                           725
    x8        c36                           110
    x9        obj1                            1
    x9        c2                            954
    x9        c8                            785
    x9        c15                           392
    x10       obj1                            1
    x10       c1                            478
    x10       c2                            926
    x10       c6                            250
    x10       c9                            551
    x10       c26                           405
    x10       c35                           695
    x11       obj1                            1
    x11       c26                           555
    x11       c37                           623
    x11       c38                           935
    x12       obj1                            1
    x12       c7                            487
    x12       c28                           522
    x12       c32                           591
    x12       c36                           670
    x13       obj1                            1
    x13       c4                            878
    x13       c10                           105
    x13       c18                           789
    x13       c19                           584
    x13       c20                           902
    x13       c24                           936
    x13       c40                           227
    x14       obj1                            1
    x14       c1                            685
    x14       c5                            736
    x14       c6                            857
    x14       c8                            265
    x14       c9                            759
    x14       c26                           291
    x14       c36                           779
    x14       c37                           351
    x15       obj1                            1
    x15       c6                            453
    x15       c21                           512
    x15       c36                           528
    x16       obj1                            1
    x16       c1                            464
    x16       c18                           780
    x16       c23                           413
    x16       c35                           977
    x16       c40                           845
    x17       obj1                            1
    x17       c13                           200
    x17       c28                           800
    x17       c31                           764
    x18       obj1                            1
    x18       c12                           792
    x18       c28                           513
    x19       obj1                            1
    x19       c4                            814
    x19       c26                           154
    x19       c36                           315
    x19       c38                           758
    x20       obj1                            1
    x21       obj1                            1
    x21       c16                           537
    x21       c24                           534
    x21       c29                           681
    x22       obj1                            1
    x22       c1                            670
    x22       c27                           701
    x22       c36                           443
    x22       c39                           546
    x22       c40                           212
    x23       obj1                            1
    x23       c3                            173
    x23       c11                           626
    x23       c20                           321
    x23       c39                           118
    x24       obj1                            1
    x24       c5                            679
    x24       c6                            578
    x24       c8                            120
    x25       obj1                            1
    x25       c7                            766
    x25       c23                           634
    x25       c29                           679
    x25       c33                           828
    x26       obj1                            1
    x26       c15                           799
    x26       c18                           186
    x27       obj1                            1
    x27       c7                            627
    x27       c20                           506
    x28       obj1                            1
    x28       c5                            795
    x28       c8                            738
    x28       c9                            362
    x28       c12                           857
    x28       c28                           174
    x28       c35                           448
    x28       c36                           243
    x29       obj1                            1
    x29       c7                            318
    x29       c16                           634
    x29       c17                           775
    x29       c26                           300
    x29       c30                           929
    x29       c33                           361
    x29       c37                           910
    x30       obj1                            1
    x30       c2                            404
    x30       c25                           783
    x31       obj1                            1
    x31       c4                            978
    x31       c40                           953
    x32       obj1                            1
    x32       c4                            776
    x32       c12                           861
    x32       c16                           531
    x32       c26                           334
    x32       c34                           489
    x33       obj1                            1
    x33       c9                            874
    x33       c12                           455
    x33       c14                           880
    x33       c36                           981
    x34       obj1                            1
    x34       c18                           855
    x34       c25                           929
    x34       c29                           904
    x35       obj1                            1
    x35       c4                            863
    x35       c9                            945
    x35       c10                           299
    x36       obj1                            1
    x36       c16                           599
    x36       c21                           770
    x36       c23                           512
    x36       c31                           812
    x36       c32                           261
    x36       c37                           217
    x36       c39                           463
    x37       obj1                            1
    x37       c9                            655
    x37       c17                           378
    x37       c37                           813
    x37       c38                           745
    x38       obj1                            1
    x38       c2                            550
    x38       c8                            875
    x38       c24                           800
    x38       c25                           415
    x38       c27                           705
    x38       c29                           396
    x39       obj1                            1
    x39       c37                           358
    x40       obj1                            1
    x40       c1                            548
    x40       c11                           971
    x40       c13                           942
    x40       c27                           807
    x41       obj1                            1
    x41       c4                            655
    x41       c9                            509
    x41       c20                           393
    x41       c39                           271
    x42       obj1                            1
    x42       c3                            786
    x42       c7                            882
    x42       c23                           828
    x42       c35                           922
    x43       obj1                            1
    x43       c10                           581
    x43       c11                           917
    x43       c12                           131
    x43       c18                           891
    x43       c19                           221
    x43       c35                           163
    x43       c37                           101
    x44       obj1                            1
    x45       obj1                            1
    x45       c1                            898
    x45       c6                            161
    x45       c8                            842
    x45       c39                           592
    x45       c40                           338
    x46       obj1                            1
    x46       c10                           362
    x46       c18                           643
    x46       c38                           344
    x47       obj1                            1
    x47       c20                           360
    x47       c21                           982
    x47       c23                           622
    x48       obj1                            1
    x48       c5                            628
    x48       c11                           994
    x48       c16                           676
    x48       c18                           241
    x49       obj1                            1
    x49       c17                           235
    x49       c40                           509
    x50       obj1                            1
    x50       c14                           471
    x51       obj1                            1
    x51       c20                           809
    x51       c27                           203
    x51       c34                           647
    x51       c37                           598
    x51       c39                           776
    x52       obj1                            1
    x52       c11                           526
    x52       c20                           801
    x52       c31                           205
    x53       obj1                            1
    x53       c4                            866
    x53       c6                            337
    x53       c8                            943
    x53       c21                           851
    x53       c30                           641
    x53       c39                           882
    x54       obj1                            1
    x54       c10                           310
    x54       c14                           210
    x54       c20                           537
    x54       c26                           835
    x54       c38                           545
    x54       c39                           731
    x54       c40                           239
    x55       obj1                            1
    x55       c6                            155
    x55       c8                            633
    x55       c13                           280
    x55       c21                           870
    x55       c23                           202
    x55       c27                           898
    x55       c29                           822
    x56       obj1                            1
    x56       c8                            525
    x56       c31                           302
    x56       c34                           229
    x57       obj1                            1
    x57       c1                            732
    x57       c31                           271
    x57       c32                           601
    x57       c35                           998
    x58       obj1                            1
    x58       c6                            276
    x58       c12                           684
    x58       c36                           290
    x58       c39                           893
    x59       obj1                            1
    x59       c3                            512
    x59       c23                           708
    x59       c36                           735
    x60       obj1                            1
    x60       c22                           646
    x61       obj1                            1
    x61       c7                            331
    x61       c16                           265
    x61       c28                           887
    x61       c39                           941
    x62       obj1                            1
    x62       c1                            177
    x62       c3                            564
    x62       c24                           803
    x63       obj1                            1
    x63       c5                            469
    x63       c9                            483
    x63       c13                           282
    x63       c19                           258
    x63       c21                           179
    x64       obj1                            1
    x64       c7                            708
    x64       c9                            386
    x64       c27                           170
    x64       c28                           138
    x64       c30                           774
    x64       c40                           248
    x65       obj1                            1
    x65       c12                           488
    x65       c39                           289
    x66       obj1                            1
    x66       c10                           164
    x67       obj1                            1
    x67       c2                            644
    x67       c4                            734
    x67       c6                            683
    x67       c13                           570
    x67       c19                           951
    x67       c20                           719
    x67       c24                           925
    x67       c33                           766
    x68       obj1                            1
    x68       c1                            452
    x68       c2                            282
    x68       c29                           805
    x68       c31                           229
    x69       obj1                            1
    x69       c4                            426
    x69       c29                           615
    x69       c33                           517
    x70       obj1                            1
    x70       c10                           261
    x70       c16                           396
    x70       c31                           152
    x71       obj1                            1
    x71       c14                           291
    x71       c16                           555
    x71       c22                           266
    x72       obj1                            1
    x72       c11                           273
    x72       c23                           862
    x72       c40                           290
    x73       obj1                            1
    x73       c5                            867
    x73       c19                           921
    x73       c21                           544
    x73       c22                           335
    x73       c37                           821
    x74       obj1                            1
    x74       c5                            610
    x74       c7                            436
    x74       c8                            651
    x74       c12                           860
    x74       c17                           140
    x74       c32                           358
    x75       obj1                            1
    x75       c4                            522
    x75       c23                           237
    x75       c28                           678
    x76       obj1                            1
    x76       c10                           914
    x76       c16                           364
    x76       c26                           367
    x76       c28                           882
    x76       c30                           738
    x76       c33                           858
    x77       obj1                            1
    x77       c1                            783
    x77       c4                            255
    x77       c15                           268
    x77       c31                           351
    x78       obj1                            1
    x78       c1                            432
    x78       c7                            757
    x78       c13                           874
    x79       obj1                            1
    x79       c1                            854
    x79       c8                            261
    x79       c9                            763
    x79       c22                           219
    x79       c24                           675
    x79       c29                           440
    x79       c36                           824
    x80       obj1                            1
    x80       c9                            283
    x80       c12                           565
    MARK0001  'MARKER'                 'INTEND'
RHS
    rhs       c1                           3587
    rhs       c2                           1880
    rhs       c3                           1479
    rhs       c4                           3946
    rhs       c5                           2392
    rhs       c6                           1875
    rhs       c7                           2779
    rhs       c8                           3732
    rhs       c9                           3285
    rhs       c10                          2086
    rhs       c11                          2154
    rhs       c12                          3118
    rhs       c13                          1722
    rhs       c14                          1104
    rhs       c15                          1166
    rhs       c16                          2437
    rhs       c17                           764
    rhs       c18                          2193
    rhs       c19                          1875
    rhs       c20                          3158
    rhs       c21                          2964
    rhs       c22                           980
    rhs       c23                          2509
    rhs       c24                          2777
    rhs       c25                          1454
    rhs       c26                          2013
    rhs       c27                          1742
    rhs       c28                          2297
    rhs       c29                          2671
    rhs       c30                          1904
    rhs       c31                          1901
    rhs       c32                           906
    rhs       c33                          1740
    rhs       c34                          1173
    rhs       c35                          2445
    rhs       c36                          2959
    rhs       c37                          2396
    rhs       c38                          1740
    rhs       c39                          3251
    rhs       c40                          1931
BOUNDS
 LI bnd       x1        0
 LI bnd       x2        0
 LI bnd       x3        0
 LI bnd       x4        0
 LI bnd       x5        0
 LI bnd       x6        0
 LI bnd       x7        0
 LI bnd       x8        0
 LI bnd       x9        0
 LI bnd       x10       0
 LI bnd       x11       0
 LI bnd       x12       0
 LI bnd       x13       0
 LI bnd       x14       0
 LI bnd       x15       0
 LI bnd       x16       0
 LI bnd       x17       0
 LI bnd       x18       0
 LI bnd       x19       0
 LI bnd       x20       0
 LI bnd       x21       0
 LI bnd       x22       0
 LI bnd       x23       0
 LI bnd       x24       0
 LI bnd       x25       0
 LI bnd       x26       0
 LI bnd       x27       0
 LI bnd       x28       0
 LI bnd       x29       0
 LI bnd       x30       0
 LI bnd       x31       0
 LI bnd       x32       0
 LI bnd       x33       0
 LI bnd       x34       0
 LI bnd       x35       0
 LI bnd       x36       0
 LI bnd       x37       0
 LI bnd       x38       0
 LI bnd       x39       0
 LI bnd       x40       0
 LI bnd       x41       0
 LI bnd       x42       0
 LI bnd       x43       0
 LI bnd       x44       0
 LI bnd       x45       0
 LI bnd       x46       0
 LI bnd       x47       0
 LI bnd       x48       0
 LI bnd       x49       0
 LI bnd       x50       0
 LI bnd       x51       0
 LI bnd       x52       0
 LI bnd       x53       0
 LI bnd       x54       0
 LI bnd       x55       0
 LI bnd       x56       0
 LI bnd       x57       0
 LI bnd       x58       0
 LI bnd       x59       0
 LI bnd       x60       0
 LI bnd       x61       0
 LI bnd       x62       0
 LI bnd       x63       0
 LI bnd       x64       0
 LI bnd       x65       0
 LI bnd       x66       0
 LI bnd       x67       0
 LI bnd       x68       0
 LI bnd       x69       0
 LI bnd       x70       0
 LI bnd       x71       0
 LI bnd       x72       0
 LI bnd       x73       0
 LI bnd       x74       0
 LI bnd       x75       0
 LI bnd       x76       0
 LI bnd       x77       0
 LI bnd       x78       0
 LI bnd       x79       0
 LI bnd       x80       0
ENDATA
